60

 0   1   2   3   1   2   3   4   2   3   4   5   3   4   5   6   4   5   6   7   5   6   7   8   6   7   8   9   7   8   9  10   8   9  10  11   9  10  11  12  10  11  12  13  11  12  13  14  12  13  14  15  13  14  15  16  14  15  16  17  
 1   0   1   2   2   1   2   3   3   2   3   4   4   3   4   5   5   4   5   6   6   5   6   7   7   6   7   8   8   7   8   9   9   8   9  10  10   9  10  11  11  10  11  12  12  11  12  13  13  12  13  14  14  13  14  15  15  14  15  16  
 2   1   0   1   3   2   1   2   4   3   2   3   5   4   3   4   6   5   4   5   7   6   5   6   8   7   6   7   9   8   7   8  10   9   8   9  11  10   9  10  12  11  10  11  13  12  11  12  14  13  12  13  15  14  13  14  16  15  14  15  
 3   2   1   0   4   3   2   1   5   4   3   2   6   5   4   3   7   6   5   4   8   7   6   5   9   8   7   6  10   9   8   7  11  10   9   8  12  11  10   9  13  12  11  10  14  13  12  11  15  14  13  12  16  15  14  13  17  16  15  14  
 1   2   3   4   0   1   2   3   1   2   3   4   2   3   4   5   3   4   5   6   4   5   6   7   5   6   7   8   6   7   8   9   7   8   9  10   8   9  10  11   9  10  11  12  10  11  12  13  11  12  13  14  12  13  14  15  13  14  15  16  
 2   1   2   3   1   0   1   2   2   1   2   3   3   2   3   4   4   3   4   5   5   4   5   6   6   5   6   7   7   6   7   8   8   7   8   9   9   8   9  10  10   9  10  11  11  10  11  12  12  11  12  13  13  12  13  14  14  13  14  15  
 3   2   1   2   2   1   0   1   3   2   1   2   4   3   2   3   5   4   3   4   6   5   4   5   7   6   5   6   8   7   6   7   9   8   7   8  10   9   8   9  11  10   9  10  12  11  10  11  13  12  11  12  14  13  12  13  15  14  13  14  
 4   3   2   1   3   2   1   0   4   3   2   1   5   4   3   2   6   5   4   3   7   6   5   4   8   7   6   5   9   8   7   6  10   9   8   7  11  10   9   8  12  11  10   9  13  12  11  10  14  13  12  11  15  14  13  12  16  15  14  13  
 2   3   4   5   1   2   3   4   0   1   2   3   1   2   3   4   2   3   4   5   3   4   5   6   4   5   6   7   5   6   7   8   6   7   8   9   7   8   9  10   8   9  10  11   9  10  11  12  10  11  12  13  11  12  13  14  12  13  14  15  
 3   2   3   4   2   1   2   3   1   0   1   2   2   1   2   3   3   2   3   4   4   3   4   5   5   4   5   6   6   5   6   7   7   6   7   8   8   7   8   9   9   8   9  10  10   9  10  11  11  10  11  12  12  11  12  13  13  12  13  14  
 4   3   2   3   3   2   1   2   2   1   0   1   3   2   1   2   4   3   2   3   5   4   3   4   6   5   4   5   7   6   5   6   8   7   6   7   9   8   7   8  10   9   8   9  11  10   9  10  12  11  10  11  13  12  11  12  14  13  12  13  
 5   4   3   2   4   3   2   1   3   2   1   0   4   3   2   1   5   4   3   2   6   5   4   3   7   6   5   4   8   7   6   5   9   8   7   6  10   9   8   7  11  10   9   8  12  11  10   9  13  12  11  10  14  13  12  11  15  14  13  12  
 3   4   5   6   2   3   4   5   1   2   3   4   0   1   2   3   1   2   3   4   2   3   4   5   3   4   5   6   4   5   6   7   5   6   7   8   6   7   8   9   7   8   9  10   8   9  10  11   9  10  11  12  10  11  12  13  11  12  13  14  
 4   3   4   5   3   2   3   4   2   1   2   3   1   0   1   2   2   1   2   3   3   2   3   4   4   3   4   5   5   4   5   6   6   5   6   7   7   6   7   8   8   7   8   9   9   8   9  10  10   9  10  11  11  10  11  12  12  11  12  13  
 5   4   3   4   4   3   2   3   3   2   1   2   2   1   0   1   3   2   1   2   4   3   2   3   5   4   3   4   6   5   4   5   7   6   5   6   8   7   6   7   9   8   7   8  10   9   8   9  11  10   9  10  12  11  10  11  13  12  11  12  
 6   5   4   3   5   4   3   2   4   3   2   1   3   2   1   0   4   3   2   1   5   4   3   2   6   5   4   3   7   6   5   4   8   7   6   5   9   8   7   6  10   9   8   7  11  10   9   8  12  11  10   9  13  12  11  10  14  13  12  11  
 4   5   6   7   3   4   5   6   2   3   4   5   1   2   3   4   0   1   2   3   1   2   3   4   2   3   4   5   3   4   5   6   4   5   6   7   5   6   7   8   6   7   8   9   7   8   9  10   8   9  10  11   9  10  11  12  10  11  12  13  
 5   4   5   6   4   3   4   5   3   2   3   4   2   1   2   3   1   0   1   2   2   1   2   3   3   2   3   4   4   3   4   5   5   4   5   6   6   5   6   7   7   6   7   8   8   7   8   9   9   8   9  10  10   9  10  11  11  10  11  12  
 6   5   4   5   5   4   3   4   4   3   2   3   3   2   1   2   2   1   0   1   3   2   1   2   4   3   2   3   5   4   3   4   6   5   4   5   7   6   5   6   8   7   6   7   9   8   7   8  10   9   8   9  11  10   9  10  12  11  10  11  
 7   6   5   4   6   5   4   3   5   4   3   2   4   3   2   1   3   2   1   0   4   3   2   1   5   4   3   2   6   5   4   3   7   6   5   4   8   7   6   5   9   8   7   6  10   9   8   7  11  10   9   8  12  11  10   9  13  12  11  10  
 5   6   7   8   4   5   6   7   3   4   5   6   2   3   4   5   1   2   3   4   0   1   2   3   1   2   3   4   2   3   4   5   3   4   5   6   4   5   6   7   5   6   7   8   6   7   8   9   7   8   9  10   8   9  10  11   9  10  11  12  
 6   5   6   7   5   4   5   6   4   3   4   5   3   2   3   4   2   1   2   3   1   0   1   2   2   1   2   3   3   2   3   4   4   3   4   5   5   4   5   6   6   5   6   7   7   6   7   8   8   7   8   9   9   8   9  10  10   9  10  11  
 7   6   5   6   6   5   4   5   5   4   3   4   4   3   2   3   3   2   1   2   2   1   0   1   3   2   1   2   4   3   2   3   5   4   3   4   6   5   4   5   7   6   5   6   8   7   6   7   9   8   7   8  10   9   8   9  11  10   9  10  
 8   7   6   5   7   6   5   4   6   5   4   3   5   4   3   2   4   3   2   1   3   2   1   0   4   3   2   1   5   4   3   2   6   5   4   3   7   6   5   4   8   7   6   5   9   8   7   6  10   9   8   7  11  10   9   8  12  11  10   9  
 6   7   8   9   5   6   7   8   4   5   6   7   3   4   5   6   2   3   4   5   1   2   3   4   0   1   2   3   1   2   3   4   2   3   4   5   3   4   5   6   4   5   6   7   5   6   7   8   6   7   8   9   7   8   9  10   8   9  10  11  
 7   6   7   8   6   5   6   7   5   4   5   6   4   3   4   5   3   2   3   4   2   1   2   3   1   0   1   2   2   1   2   3   3   2   3   4   4   3   4   5   5   4   5   6   6   5   6   7   7   6   7   8   8   7   8   9   9   8   9  10  
 8   7   6   7   7   6   5   6   6   5   4   5   5   4   3   4   4   3   2   3   3   2   1   2   2   1   0   1   3   2   1   2   4   3   2   3   5   4   3   4   6   5   4   5   7   6   5   6   8   7   6   7   9   8   7   8  10   9   8   9  
 9   8   7   6   8   7   6   5   7   6   5   4   6   5   4   3   5   4   3   2   4   3   2   1   3   2   1   0   4   3   2   1   5   4   3   2   6   5   4   3   7   6   5   4   8   7   6   5   9   8   7   6  10   9   8   7  11  10   9   8  
 7   8   9  10   6   7   8   9   5   6   7   8   4   5   6   7   3   4   5   6   2   3   4   5   1   2   3   4   0   1   2   3   1   2   3   4   2   3   4   5   3   4   5   6   4   5   6   7   5   6   7   8   6   7   8   9   7   8   9  10  
 8   7   8   9   7   6   7   8   6   5   6   7   5   4   5   6   4   3   4   5   3   2   3   4   2   1   2   3   1   0   1   2   2   1   2   3   3   2   3   4   4   3   4   5   5   4   5   6   6   5   6   7   7   6   7   8   8   7   8   9  
 9   8   7   8   8   7   6   7   7   6   5   6   6   5   4   5   5   4   3   4   4   3   2   3   3   2   1   2   2   1   0   1   3   2   1   2   4   3   2   3   5   4   3   4   6   5   4   5   7   6   5   6   8   7   6   7   9   8   7   8  
10   9   8   7   9   8   7   6   8   7   6   5   7   6   5   4   6   5   4   3   5   4   3   2   4   3   2   1   3   2   1   0   4   3   2   1   5   4   3   2   6   5   4   3   7   6   5   4   8   7   6   5   9   8   7   6  10   9   8   7  
 8   9  10  11   7   8   9  10   6   7   8   9   5   6   7   8   4   5   6   7   3   4   5   6   2   3   4   5   1   2   3   4   0   1   2   3   1   2   3   4   2   3   4   5   3   4   5   6   4   5   6   7   5   6   7   8   6   7   8   9  
 9   8   9  10   8   7   8   9   7   6   7   8   6   5   6   7   5   4   5   6   4   3   4   5   3   2   3   4   2   1   2   3   1   0   1   2   2   1   2   3   3   2   3   4   4   3   4   5   5   4   5   6   6   5   6   7   7   6   7   8  
10   9   8   9   9   8   7   8   8   7   6   7   7   6   5   6   6   5   4   5   5   4   3   4   4   3   2   3   3   2   1   2   2   1   0   1   3   2   1   2   4   3   2   3   5   4   3   4   6   5   4   5   7   6   5   6   8   7   6   7  
11  10   9   8  10   9   8   7   9   8   7   6   8   7   6   5   7   6   5   4   6   5   4   3   5   4   3   2   4   3   2   1   3   2   1   0   4   3   2   1   5   4   3   2   6   5   4   3   7   6   5   4   8   7   6   5   9   8   7   6  
 9  10  11  12   8   9  10  11   7   8   9  10   6   7   8   9   5   6   7   8   4   5   6   7   3   4   5   6   2   3   4   5   1   2   3   4   0   1   2   3   1   2   3   4   2   3   4   5   3   4   5   6   4   5   6   7   5   6   7   8  
10   9  10  11   9   8   9  10   8   7   8   9   7   6   7   8   6   5   6   7   5   4   5   6   4   3   4   5   3   2   3   4   2   1   2   3   1   0   1   2   2   1   2   3   3   2   3   4   4   3   4   5   5   4   5   6   6   5   6   7  
11  10   9  10  10   9   8   9   9   8   7   8   8   7   6   7   7   6   5   6   6   5   4   5   5   4   3   4   4   3   2   3   3   2   1   2   2   1   0   1   3   2   1   2   4   3   2   3   5   4   3   4   6   5   4   5   7   6   5   6  
12  11  10   9  11  10   9   8  10   9   8   7   9   8   7   6   8   7   6   5   7   6   5   4   6   5   4   3   5   4   3   2   4   3   2   1   3   2   1   0   4   3   2   1   5   4   3   2   6   5   4   3   7   6   5   4   8   7   6   5  
10  11  12  13   9  10  11  12   8   9  10  11   7   8   9  10   6   7   8   9   5   6   7   8   4   5   6   7   3   4   5   6   2   3   4   5   1   2   3   4   0   1   2   3   1   2   3   4   2   3   4   5   3   4   5   6   4   5   6   7  
11  10  11  12  10   9  10  11   9   8   9  10   8   7   8   9   7   6   7   8   6   5   6   7   5   4   5   6   4   3   4   5   3   2   3   4   2   1   2   3   1   0   1   2   2   1   2   3   3   2   3   4   4   3   4   5   5   4   5   6  
12  11  10  11  11  10   9  10  10   9   8   9   9   8   7   8   8   7   6   7   7   6   5   6   6   5   4   5   5   4   3   4   4   3   2   3   3   2   1   2   2   1   0   1   3   2   1   2   4   3   2   3   5   4   3   4   6   5   4   5  
13  12  11  10  12  11  10   9  11  10   9   8  10   9   8   7   9   8   7   6   8   7   6   5   7   6   5   4   6   5   4   3   5   4   3   2   4   3   2   1   3   2   1   0   4   3   2   1   5   4   3   2   6   5   4   3   7   6   5   4  
11  12  13  14  10  11  12  13   9  10  11  12   8   9  10  11   7   8   9  10   6   7   8   9   5   6   7   8   4   5   6   7   3   4   5   6   2   3   4   5   1   2   3   4   0   1   2   3   1   2   3   4   2   3   4   5   3   4   5   6  
12  11  12  13  11  10  11  12  10   9  10  11   9   8   9  10   8   7   8   9   7   6   7   8   6   5   6   7   5   4   5   6   4   3   4   5   3   2   3   4   2   1   2   3   1   0   1   2   2   1   2   3   3   2   3   4   4   3   4   5  
13  12  11  12  12  11  10  11  11  10   9  10  10   9   8   9   9   8   7   8   8   7   6   7   7   6   5   6   6   5   4   5   5   4   3   4   4   3   2   3   3   2   1   2   2   1   0   1   3   2   1   2   4   3   2   3   5   4   3   4  
14  13  12  11  13  12  11  10  12  11  10   9  11  10   9   8  10   9   8   7   9   8   7   6   8   7   6   5   7   6   5   4   6   5   4   3   5   4   3   2   4   3   2   1   3   2   1   0   4   3   2   1   5   4   3   2   6   5   4   3  
12  13  14  15  11  12  13  14  10  11  12  13   9  10  11  12   8   9  10  11   7   8   9  10   6   7   8   9   5   6   7   8   4   5   6   7   3   4   5   6   2   3   4   5   1   2   3   4   0   1   2   3   1   2   3   4   2   3   4   5  
13  12  13  14  12  11  12  13  11  10  11  12  10   9  10  11   9   8   9  10   8   7   8   9   7   6   7   8   6   5   6   7   5   4   5   6   4   3   4   5   3   2   3   4   2   1   2   3   1   0   1   2   2   1   2   3   3   2   3   4  
14  13  12  13  13  12  11  12  12  11  10  11  11  10   9  10  10   9   8   9   9   8   7   8   8   7   6   7   7   6   5   6   6   5   4   5   5   4   3   4   4   3   2   3   3   2   1   2   2   1   0   1   3   2   1   2   4   3   2   3  
15  14  13  12  14  13  12  11  13  12  11  10  12  11  10   9  11  10   9   8  10   9   8   7   9   8   7   6   8   7   6   5   7   6   5   4   6   5   4   3   5   4   3   2   4   3   2   1   3   2   1   0   4   3   2   1   5   4   3   2  
13  14  15  16  12  13  14  15  11  12  13  14  10  11  12  13   9  10  11  12   8   9  10  11   7   8   9  10   6   7   8   9   5   6   7   8   4   5   6   7   3   4   5   6   2   3   4   5   1   2   3   4   0   1   2   3   1   2   3   4  
14  13  14  15  13  12  13  14  12  11  12  13  11  10  11  12  10   9  10  11   9   8   9  10   8   7   8   9   7   6   7   8   6   5   6   7   5   4   5   6   4   3   4   5   3   2   3   4   2   1   2   3   1   0   1   2   2   1   2   3  
15  14  13  14  14  13  12  13  13  12  11  12  12  11  10  11  11  10   9  10  10   9   8   9   9   8   7   8   8   7   6   7   7   6   5   6   6   5   4   5   5   4   3   4   4   3   2   3   3   2   1   2   2   1   0   1   3   2   1   2  
16  15  14  13  15  14  13  12  14  13  12  11  13  12  11  10  12  11  10   9  11  10   9   8  10   9   8   7   9   8   7   6   8   7   6   5   7   6   5   4   6   5   4   3   5   4   3   2   4   3   2   1   3   2   1   0   4   3   2   1  
14  15  16  17  13  14  15  16  12  13  14  15  11  12  13  14  10  11  12  13   9  10  11  12   8   9  10  11   7   8   9  10   6   7   8   9   5   6   7   8   4   5   6   7   3   4   5   6   2   3   4   5   1   2   3   4   0   1   2   3  
15  14  15  16  14  13  14  15  13  12  13  14  12  11  12  13  11  10  11  12  10   9  10  11   9   8   9  10   8   7   8   9   7   6   7   8   6   5   6   7   5   4   5   6   4   3   4   5   3   2   3   4   2   1   2   3   1   0   1   2  
16  15  14  15  15  14  13  14  14  13  12  13  13  12  11  12  12  11  10  11  11  10   9  10  10   9   8   9   9   8   7   8   8   7   6   7   7   6   5   6   6   5   4   5   5   4   3   4   4   3   2   3   3   2   1   2   2   1   0   1  
17  16  15  14  16  15  14  13  15  14  13  12  14  13  12  11  13  12  11  10  12  11  10   9  11  10   9   8  10   9   8   7   9   8   7   6   8   7   6   5   7   6   5   4   6   5   4   3   5   4   3   2   4   3   2   1   3   2   1   0  

 0  28  62  72   0   5   1   3   0  39  13  26  81   1  14  28   1   0   0   0   1   0   3  79   0  71   0   1  49   8   1   1   2   0  23   0  76  11   1  93  69   4   5   1   1   1   0  83  91   1   0   0   2   0   1   0   0   1  44  70  
 0   0   1   1   0   1  38   3   4   0  22   0  36  26   1   1   1   3   4   0  72   1  21  60  82   7   0   0   0   2   1   2   6  16   0   1  65   1  49  25   0  21   0   1   1   3   0   5   1  14   2  12  66   1   0  97   6   0   1   1  
22  59   0   0   1   0   1   0   5   2   0  42   0  20  18   7  90   0   0  88  22   1   0   0   1   9  35  31  35   2   5  20  16   6  10   0   4   0   2   1   1   0  52   1  53  10   5  13   1   1  31  93   4   1   0   1   1   1   0   1  
74  22   1   0  25  49  16  19   1  73   5   1   5  11  97  10  13   1   9  59   1   1  76   1   0   4   1   1   0   0  11   0   1  13  10   1   4   2   4  33  38  12  28  29   0  19   8   0  84   1   0   1  73   0  20  90   1  11  41   1  
33   1  30   0   0   0   1   0   5  85  14  76  20   0   1   1   0   1   0   6  28   0  98  19   6  73  20   1   2   8  22   0   0  48   0   1   8   6   1   1   0  62  10   1   1  20   1   0   1  59   0   5  21   4   1   0   1  92   9  50  
28  19   1   0  11   0  12  21  51  74   0  18   1   1   6   1   1   7   9  30  50  21   5   1  51  91  40  23   1   8   1  74  26  11   1   0   0  74  36   0   0  78  85   0   0   1   2   1   0  99  99   1   0   0   0   1   1  12  35   9  
 0   4   0   8   5  24   0   1  23  69   0   2  15   0   2  46  13  11   0   1   3  99  75  14  11  17  30   0  87   0   0  74  68   0  17   0  23  72  90  33  69   5  89   0  15   0   0  57  12   1  89  52  87   1   1   2   3   1  49   0  
98   7   2  94  16   1   1   0   1   1  54  36  15  26  69  60  22   0  21  57   9   1   0   1   8  22   5   0   1   1   0   0   1   2   6   0   0   0   2   1  25  21   5  84   1   0  15   0   1   0   7   0   0  46  28   1   1   0   1   1  
 4   0  34  93   1   3   1  89   0  13   1  48  16   1  22   8  13   0  24   1   0   0   1   1  22   0   1  49   5   1  65   1  57  42   1  28   0   0   7   0  10   0   0   7  46   6   1   5   1   1  12   6   0   9   1  45   1   3   0   1  
 0   1   3   1  57   1   7  11  58   0  54  15   1   0   1   0   6  11   1  59  93   1  92   0  99   0   0  17  15  40   0   9  52   1  11   1  12   6   0  42  42  30   0   1   1  47  53   0  32   4  18  51  87   1   1   0   6   3   1   9  
 0   3   1   1  19   0  13  59  48  12   0   1  99  11  23  51   0  13   1   1  62   1   1   1   0  27   1   1  36  21   1  21  34  16   1   4   0   0   1  12   1   0   1  96  46  13   0   2   0  22   1  70   5   1   3  98  21  41  17   4  
 0   0   0   1   0   0   2   1  40  10  96   0   0   1  72   1   1  12   1   3   1  67   1  99  50   0  22   1   0   0  25  66   1   0  92   0   1  92   0   8   1   2   1   0   3  20   3  18  13  23   1  58   5  56  34  76  68   0   1   1  
 0   1   0  33  23  35   1  69  10   1  46   4   0   1  29   1   5   0  96  99   1  32   1  67  55  30   1   1  41  36  27  31   1  17  68  89   4  34   1  71   2   7   1   0   1  23   0  57   1  19   1   0  35   1   8  28  72  12   0   0  
30  20   0  38  98  19  66  16   0  10   1  68  16   0   1  21   1   0   1   0   2  46   3  92   0  10  18  88   1   0   0   0   1  16   0   0   0   1  95  23  76  20   8   1  30  51   6  25  89   1   0  25  30  17  30  93   0   1   1   2  
 0   6  34  76   3  71   3  83   4  23   1  94  48  73   0   1   1   1   0  95   2   1   8   1   1  22  46  42   6  41  40   1   6   1   1   0   1   1  51   3   0   1   0   0   2  16  39   1   1   1  42   1  21  13  49  48   1  39  14   2  
 7  81   5  38   0  27  21   0   1  26  52   0  26   0   2   0   0   1  61  29   1  29  43   0  36  35   6  87   1  32   6  80  21   0  15   1   2  23  20  72  13   2  26   0  70  65   1  52  50  91  33   1   1   0   5   0   1  39   0  89  
 3   0  18  43   3   0  12   0  90  76   8   0  19   5   0   1   0  26   6  23   0   1   0   0  28   1  43   0  26  49   1   0   1   0   1   0   1   0   0   1   8  75   1   1   8   1   1  17   0  56   7   0   5  29   0  15  29  30   1   9  
11   0  18   1  55  51  92   0   3  61  75  99   1   4   1  34  17   0   0   7   0   1  10  22  90   9  42  20  60   0   3   0  21   1  46   0   0   1   6  53   1   0   1   1   0  65  32  11   1   1   1   3  39   1  36   0  43   2   7  35  
 1   0  50  57   1  94   1   0   0   1  42   9  14  84  77   1  10   1   0   9   1   3  65   1  39  18   1  10   3   0   0   1  32  67   0  12   0   0  81   0   5   6   9   1   1   3  84   0   0  60   1   7  16   1   1  64   1   1  12  65  
 1   0  61   0  25   8   0   9  35   1   0   1  77   1   0  20  64  38   0   0  47  46  41   1   1   2   1   1   1  12  33  34   6  13   1   1   1  37  62   0  60  74   2  17   1  23   1   1   1   1   0   7  49   0  39   0   5  21   1  75  
 7  27   0  42   1   0  36  13  73   3   0  74   1  25   1   1  60   8  37  29   0   0  17  14   1  65  68   1   1  59   1  64  98  59   1   5  73  84   1   7  46   0   0   0   7  67   1  54   0  38   0  55   1  43  11   2   1   0   1  34  
 1  16   9   4  80   5   7   1  57   0  62  45   1   0   1   1   1   1   1  66   0   0   1   7   1  31  50  52  44   1   1  21   0  40  18   1  44  21  10   1   1   0  71  11  93   4   1   4   8  69   1  29   1  28   0  41  11   1  38  82  
 4   9  12   2  17  31   5  82   0   8   1   3  79  31  76   4   7  44  13  39   1  36   0   0  58   1  24   0   2   0   0   1  48   1   0   1  16   1   8   6   0   0  79  12   0   0  71   1  95  21  41  10  33  57   1   1   0  77  95  23  
 1   1  35  44  85   1  56   9   1  86   1   1   6  38   1   0   0   1   1   1   0   0   3   0   8  28   0   2   1   5   0   1   1  57  55   1  28  15   4   0   1   0  35   0  28  18  40   1  20   0  87  90   1  82  36   0   2   0   0   1  
 4   0  47   1   1  47   1   1  81  10   1   1   2  48  14   0   2   0   1  68   1   0  17   3   0   9   0   6   0  10  25   0   6   0   3   2  24   1   0   0   0  41   0  78  43  10   1  37   0   8  98   0   1   3  26   4  18   1  10   0  
 3   9  45   2  11   1  55   1   0   0   1   1   1   0  28   0   0  12   1  29  61  40   5   2   0   0   1   1   6   1  82   1  13   0   0   1   1   1   1  71   0   0   0  11   3   8  61   0   2  91  32   0   1  15   9   1  11   0   1   0  
19   0  19   1  18  43  26   4   1   1   1   1   0   1   0  33  56   1   1  57   0   1   3   1   1   2   0   0   1   0   1  67   0  26   1   2   1   5   0  37   7   1   1   1  69  15   1   4   1   5   0   0  26  74   1   0   6  25   0   2  
 0  23  48  61   0   7   1   0  55   2   0   1   7   0   1   1  60  81  14  92  58   1  22   3   1   1  49   0   0   1  75   1   0   1   3   1   0  24   0   6  19  56   1  29   0   1   1   1  18   1   1   0   0   1   5   0   1  39  88   1  
55   2   1   1  19   7  23   0  81  55   3   1  30   0   0  38   1   0   0   0   1  41  92   5   1   5   0   7   0  13  11   0   0  75   1   7  59   0   3   1   6  84   1  59  30   9   0   1   1  12   1  88   1   2   0  94  18   1  15   1  
 5  14  21  58   1   2  62  82  66  76  18   2  28   0  71  38   1   0  12  29   1  96  25   1   1   8   9   1   0   0   0  63  21   1   1  10   1   0  53  40   0  14   1  84  58  73  11  21  32   5   1   1  10  21   1   0  15  25   3  73  
19  39  38   5   0  21  53  13  43   0   0   0   0  16  13   6   1  37   4  68   1   0   1   1  86  19   1   1   3   1   0   0  81   0  39  11   1   0   1  47  35   5   0   0   0   1   1  22  75   0  12   9   0   1  12   0   0   1  77  73  
29  23  49  78   1   7  17  13  33  52   0   1   1  18   1   6  78   1   0   0  21  10   5   1   1   0   2   1   1  25  65   0   1   1   0   0  12   1   0  42   1   1   0   1   1  54  13   4   0   6  58   0  15   0   1  11  59  59   1  92  
 1   1   1   3   0   7   1   1  10  41   2   4   1  63   1  21   0  18   1  52  12  17  89   2   1   0  36  42   1   1   4  51   0   0   1  11   2   2   2   2   1   1   1   1   0  21   1  69   0  37   1   0   1  15   1   0   0  96  26   1  
 0   6  72   0  48  14  10   1   1   8   1   1   5   1   1   1   6  31  82   0   0   0  47   0  22   1  22   0  52   0   0  51   9   0   0  16   5  64  95  10   1   1  75  82   1   1   1  53   0   0   0   0   1  51   3   0   7   1   1  15  
 0   4   1  23   1   6  20   1   4   1  81   5   1   1   1   2   1  47   0  88  35   1  26   0  83   1   1  11  13   8   0   1   0  30   0  14  67   0  16  10   2  11   0   0  92  54   0   4   4   1  34  77   1  10   1   1   1   0  19  36  
 1  11   5   1  35   5  13  53   0  73   1   1   1  25  94  10   1   0   0   0  90   0   0  66  96  31  12  25   1   1  19  66  25  45  10   0   7  95   0  15   0   0   1   0   0  57   5   3  66   3  19   1  64   0   3  79   6   1  76   1  
 1   1   1   3  15  88   3  63  66   1   0   1  15   1  60   1   0   0   0  15  21  63  10  83   0  71   0   1   1   1   0   1  15   8  20   1   0   0  19   2   0  27   2  59  68   6   8   1   0   3   0  38   0  64  17   3  20   0  99   0  
53   0   0   1   0  23  97   1   1   1   0  10   0   0   6  19   2  17   1   1   0   0   3  28  16   0   0  52   1  93   1  25   3  63  47   1  14   0   1   1   1   1   0   6  26   0   6   0  75   0   9  42   4  64   2   4  36  40  55   1  
 1  53  69  70  15  14   1  30   1  28   8  18   3  33  45  83   0   0   0   1  88  56   0   0   0   1  13   0  84   6   1  50  15   1   0   0   0   0   0   1  26   1  52  40   1  18   0  73   0   1   1   1  34   3  23   4  65   3  17   1  
22   0   1   4  73  35   1   0   0  11   0   0  87   1   1  27   5   0  93   0   1  32  48  11   1  25  21   3   1   6   1   1   0   0   0   0   0   0  36   0  31  97  44  25   0   1   0   5   1  63  58   1   0  21   5   0   2  63  56  68  
34   1  12   1   1   0  65  53   1   1   1   1   1   1  30  11   9   1  71  85  55  58  77   1  74   7   1  82   1   5  53   2   6   2   0   0  44  91   1   0   0  16   0   2  20   1   5   1  24   0  24   0  47   0   1   2   0   0   0   1  
 2  11   0  46   0   0   3   4  40   3   1  89  19   1   0   1  66  10  86  41  40   0   0   9   1  49   8  67   0   3  45   0  83   4   0   1   0   1   1  28   0   0   1  55  18   1  22  35   1   0   1   1   9   1  87   0  73  72   4   0  
45  42  60  70  12   1  21  65  45  15  55   3   1  88  18   1   4  26  35   1   1  56   2   0  81  22   1  97   4  71   0   0   0   0   0   0   1   1  38   9   1  76   0   1   7  30  13   7   0  33   1   1  24  50  27   0  82   0  30   0  
72   5   0  19   1   1   1  13  67   1   0   1   1  77   4   0   1   1   0  80   0  35   4   9  23   8   0   0  23   1  53  46  99   9  56   8  14   0   1   1  35   1  79   0   0  67   3  53  57   3   1  30  15   0  33  43  23  13  27   3  
 0   0  12   2   1  31   1   2   8   1   1   1  89   4  39  21   2  65  27   1   0   1  30   0   0   1  28  41  26   6  41   7  59  13  41  60  21   1   1   1  10   7  15   0   0  40   1   0  61   1  54   0   0   0   4   0   1   1  15  12  
40   7  16   2   4  75   3   1   7   1  50   0  36   0  34   1  26  19   0   0  13   1   2   2   0  34  69   7   8   1   1   1  83   0  98   0   0  37   0   1  10   1   1   0   3   0   4  72  71  37  12   5  14   1  12   0  76  15  87   0  
 6  34  65   4   1  90  17  96  88  15  33  13   2   8  89   8   3  22   1  35   0  76   0   1   0  44  11  78  39   8   0   0  10   0   0   2  45  26   0   2  59  12   1   1   1  11   0   0  13   0  48  22  23  61   0   0  19  32   2  47  
10  40   7   1   1  11   0  39   7   0  17   0   0  14  78   0   1   2   8  69   0   1  46  17  92   3   1  15  47  98   5  45   3   1   1  57   3   1  34   1   0  57  76   1   0  91  18   0   0   1  65  28  64  66   1  33   4  83   0  66  
 1  34  32  96  14   1   0   0   1  84   0  24   1   0  17  17   0  23   4  94   6  68   0  33   1   0  60   3   2  99   0   1  48  30  51   0  97   1   5  73  89  18   1   1   9   9  29   2   0  64  75   9   0  30   1   8  84   0   0   0  
 1  18   1  20   6  24  43   0   5   7   0   1   1  17  18  71   1   0   4   0   1   3  28   0  72   3   2  75   1  16   9   0  84   0  20   1   7   0   0  32   1   0  23  77  19   0   1   1   3   0  65   8  77  49  39   1   7  31  19   0  
 4   1   0   0  70  40   1   2  81   0  16  31   1   1   1  60  22   1  14  21  83   1   5   6  12  56   1  46   1  74  13   1  27   3   0  18   1  33   5   0  40   7  81  86   0   1   1  69   1  57   0   1   1  38  55   1   0   1   0  38  
56   1   0   1   6  58   2   0   2   1   1  23   0  48  43   1   2  14  17   1   1   1  67   0  92  56  98   8   1   7   6   6   0   0   0  78  33   0   5   1  44   0   1   0  82  87   0   0  81   0  13   0   1  13   0   0  13   1  62   1  
23   5   0   1  26   0   1   1  48  13   0   7   0   7  94   1   2   1   1   1   2   1   0   0  61  18  20   3   0  10   0   3   0   1   1  20   0   0   0   0   0   0  33   2   1   4   0   7  49   0  17   0   0   0   1   0  15   0  45  26  
 0   1   1  60   8   1  12   1   8   1   5   1   1  15   1   1   0   1  85   1  34  17   3  23   2  21   0  78   2   1  17  11  96   1   1  27   2   1   0  21   1  65   3  42   2   0  40  60   1   0  19   0   0   0  47  14  89   0  35   6  
27   1   0   1   0   9  13  40   1   2  43  33   1  18   1   1   1   0  44  16   0   0   6   0   1   1  76   1   3  23   0   1   1   0   0  96   4   6   0   1   2   0   6   2  62   4   1   2  34  27   0   0   1   1   0  13   3  60   1  17  
 0  80  30   1  14   0  81   5   1   9   0  85  20  62   1   1   0   0   8  51   4  11   0  99   0  85   0  71  69   2  62  53   1   1   0   0   1   0  29   5  94   2  93  49   2   1  86   1  24   1  47   1   1   5   0   0   1  10   0   1  
29  71   1  30   0   1   0  32   0   6   0  49   0  27   1   0  24   0   0  89   0  43   0   3   2  10  81  70  26  18  24  14   0   0  66   5   1   1   1  13   1   1   0   0   4   1   2   1  36   1   1  11   0   0   1  45   0   1   1  83  
 0  89   8   0   0  55   1  39  77   1  19  38  39   1   0   4   6  29   0   1   1  62  51   1   0   1   1  93  70   0   1  91   4  39  15  51   0   1  30   7   1  57  36   1  42   2   2  52   1  11   1   0  42  29  56   1   1   0  79   1  
24  15  26  17   2  68  18  55   1   0   1  84  97  96  55   1   3   0  92   0  21   0   1   1   0   1  65  66  13   1  26  14  87  18   5   0   1   1   2  51   1   0  22  13   0   8   0   0   0  25  32   1  24  28   1  19   1   1   0   4  
60  18   1   1   4   0  63   6   2   0   1   1   7   1   0   0  13   5   1   7   1   6  59   9   1   1  54  36   4   0  75   1  40   0  15   0   0   0   0   4   1  66   0  16  44   0   1   1  12  71  89  27   4   0  77  13  15   1  28   0  
